language Essence 1.3

letting blksize_delta be function(1 --> 3, 2 --> 3, 3 --> 3, 4 --> 3, 5 --> 3, 6 --> 3)
letting maxcars be function(1 --> 10, 2 --> 10, 3 --> 10, 4 --> 10, 5 --> 9, 6 --> 8)
letting n_cars be 142
letting n_classes be 2
letting n_options be 6
letting quantity be function(1 --> 71, 2 --> 71)
letting usage be relation((1, 1), (1, 2), (1, 3), (1, 4), (1, 5), (2, 6))
$ Visualisation for usage
$ 1 1
$ 1 2
$ 1 3
$ 1 4
$ 1 5
$ 2 6

